p cnf 15 33
4 8 13 0
7 12 18 0
11 17 24 0
16 23 31 0
22 30 39 0
-4 -8 0
-4 -13 0
-7 -12 0
-7 -18 0
-11 -17 0
-11 -24 0
-16 -23 0
-16 -31 0
-22 -30 0
-22 -39 0
-4 -11 0
-8 -17 0
-13 -24 0
-4 -16 0
-8 -23 0
-13 -31 0
-7 -11 0
-12 -17 0
-18 -24 0
-7 -22 0
-12 -30 0
-18 -39 0
-11 -16 0
-17 -23 0
-24 -31 0
-11 -22 0
-17 -30 0
-24 -39 0
